; Benchmark for LTL-sketching problem
(set-logic QF_UF)
(set-info :status unknown)
(declare-fun z_1_0_0 () Bool)
(declare-fun z_0_0_0 () Bool)
(declare-fun z_1_1_0 () Bool)
(declare-fun z_0_1_0 () Bool)
(declare-fun z_1_2_0 () Bool)
(declare-fun z_0_2_0 () Bool)
(declare-fun z_1_3_0 () Bool)
(declare-fun z_0_3_0 () Bool)
(declare-fun z_1_4_0 () Bool)
(declare-fun z_0_4_0 () Bool)
(declare-fun z_1_5_0 () Bool)
(declare-fun z_0_5_0 () Bool)
(declare-fun z_1_6_0 () Bool)
(declare-fun z_0_6_0 () Bool)
(declare-fun z_1_7_0 () Bool)
(declare-fun z_0_7_0 () Bool)
(declare-fun z_1_8_0 () Bool)
(declare-fun z_0_8_0 () Bool)
(declare-fun z_1_9_0 () Bool)
(declare-fun z_0_9_0 () Bool)
(declare-fun z_0_10_1 () Bool)
(declare-fun z_1_10_0 () Bool)
(declare-fun z_0_10_0 () Bool)
(declare-fun z_0_10_2 () Bool)
(declare-fun z_1_10_1 () Bool)
(declare-fun z_0_10_3 () Bool)
(declare-fun z_1_10_2 () Bool)
(declare-fun z_0_10_4 () Bool)
(declare-fun z_1_10_3 () Bool)
(declare-fun z_0_10_5 () Bool)
(declare-fun z_1_10_4 () Bool)
(declare-fun z_0_10_6 () Bool)
(declare-fun z_1_10_5 () Bool)
(declare-fun z_0_10_7 () Bool)
(declare-fun z_1_10_6 () Bool)
(declare-fun z_0_10_8 () Bool)
(declare-fun z_1_10_7 () Bool)
(declare-fun z_0_10_9 () Bool)
(declare-fun z_1_10_8 () Bool)
(declare-fun z_0_10_10 () Bool)
(declare-fun z_1_10_9 () Bool)
(declare-fun z_0_10_11 () Bool)
(declare-fun z_1_10_10 () Bool)
(declare-fun z_1_10_11 () Bool)
(declare-fun z_0_11_1 () Bool)
(declare-fun z_1_11_0 () Bool)
(declare-fun z_0_11_0 () Bool)
(declare-fun z_0_11_2 () Bool)
(declare-fun z_1_11_1 () Bool)
(declare-fun z_0_11_3 () Bool)
(declare-fun z_1_11_2 () Bool)
(declare-fun z_0_11_4 () Bool)
(declare-fun z_1_11_3 () Bool)
(declare-fun z_0_11_5 () Bool)
(declare-fun z_1_11_4 () Bool)
(declare-fun z_0_11_6 () Bool)
(declare-fun z_1_11_5 () Bool)
(declare-fun z_0_11_7 () Bool)
(declare-fun z_1_11_6 () Bool)
(declare-fun z_0_11_8 () Bool)
(declare-fun z_1_11_7 () Bool)
(declare-fun z_0_11_9 () Bool)
(declare-fun z_1_11_8 () Bool)
(declare-fun z_0_11_10 () Bool)
(declare-fun z_1_11_9 () Bool)
(declare-fun z_0_11_11 () Bool)
(declare-fun z_1_11_10 () Bool)
(declare-fun z_1_11_11 () Bool)
(declare-fun z_0_12_1 () Bool)
(declare-fun z_1_12_0 () Bool)
(declare-fun z_0_12_0 () Bool)
(declare-fun z_0_12_2 () Bool)
(declare-fun z_1_12_1 () Bool)
(declare-fun z_0_12_3 () Bool)
(declare-fun z_1_12_2 () Bool)
(declare-fun z_0_12_4 () Bool)
(declare-fun z_1_12_3 () Bool)
(declare-fun z_0_12_5 () Bool)
(declare-fun z_1_12_4 () Bool)
(declare-fun z_0_12_6 () Bool)
(declare-fun z_1_12_5 () Bool)
(declare-fun z_0_12_7 () Bool)
(declare-fun z_1_12_6 () Bool)
(declare-fun z_0_12_8 () Bool)
(declare-fun z_1_12_7 () Bool)
(declare-fun z_0_12_9 () Bool)
(declare-fun z_1_12_8 () Bool)
(declare-fun z_0_12_10 () Bool)
(declare-fun z_1_12_9 () Bool)
(declare-fun z_0_12_11 () Bool)
(declare-fun z_1_12_10 () Bool)
(declare-fun z_1_12_11 () Bool)
(declare-fun z_0_13_1 () Bool)
(declare-fun z_1_13_0 () Bool)
(declare-fun z_0_13_0 () Bool)
(declare-fun z_0_13_2 () Bool)
(declare-fun z_1_13_1 () Bool)
(declare-fun z_0_13_3 () Bool)
(declare-fun z_1_13_2 () Bool)
(declare-fun z_0_13_4 () Bool)
(declare-fun z_1_13_3 () Bool)
(declare-fun z_0_13_5 () Bool)
(declare-fun z_1_13_4 () Bool)
(declare-fun z_0_13_6 () Bool)
(declare-fun z_1_13_5 () Bool)
(declare-fun z_0_13_7 () Bool)
(declare-fun z_1_13_6 () Bool)
(declare-fun z_0_13_8 () Bool)
(declare-fun z_1_13_7 () Bool)
(declare-fun z_0_13_9 () Bool)
(declare-fun z_1_13_8 () Bool)
(declare-fun z_0_13_10 () Bool)
(declare-fun z_1_13_9 () Bool)
(declare-fun z_0_13_11 () Bool)
(declare-fun z_1_13_10 () Bool)
(declare-fun z_0_13_12 () Bool)
(declare-fun z_1_13_11 () Bool)
(declare-fun z_1_13_12 () Bool)
(declare-fun z_0_14_1 () Bool)
(declare-fun z_1_14_0 () Bool)
(declare-fun z_0_14_0 () Bool)
(declare-fun z_0_14_2 () Bool)
(declare-fun z_1_14_1 () Bool)
(declare-fun z_0_14_3 () Bool)
(declare-fun z_1_14_2 () Bool)
(declare-fun z_0_14_4 () Bool)
(declare-fun z_1_14_3 () Bool)
(declare-fun z_0_14_5 () Bool)
(declare-fun z_1_14_4 () Bool)
(declare-fun z_0_14_6 () Bool)
(declare-fun z_1_14_5 () Bool)
(declare-fun z_0_14_7 () Bool)
(declare-fun z_1_14_6 () Bool)
(declare-fun z_0_14_8 () Bool)
(declare-fun z_1_14_7 () Bool)
(declare-fun z_0_14_9 () Bool)
(declare-fun z_1_14_8 () Bool)
(declare-fun z_0_14_10 () Bool)
(declare-fun z_1_14_9 () Bool)
(declare-fun z_0_14_11 () Bool)
(declare-fun z_1_14_10 () Bool)
(declare-fun z_0_14_12 () Bool)
(declare-fun z_1_14_11 () Bool)
(declare-fun z_0_14_13 () Bool)
(declare-fun z_1_14_12 () Bool)
(declare-fun z_1_14_13 () Bool)
(declare-fun z_0_15_1 () Bool)
(declare-fun z_1_15_0 () Bool)
(declare-fun z_0_15_0 () Bool)
(declare-fun z_0_15_2 () Bool)
(declare-fun z_1_15_1 () Bool)
(declare-fun z_0_15_3 () Bool)
(declare-fun z_1_15_2 () Bool)
(declare-fun z_0_15_4 () Bool)
(declare-fun z_1_15_3 () Bool)
(declare-fun z_0_15_5 () Bool)
(declare-fun z_1_15_4 () Bool)
(declare-fun z_0_15_6 () Bool)
(declare-fun z_1_15_5 () Bool)
(declare-fun z_0_15_7 () Bool)
(declare-fun z_1_15_6 () Bool)
(declare-fun z_0_15_8 () Bool)
(declare-fun z_1_15_7 () Bool)
(declare-fun z_0_15_9 () Bool)
(declare-fun z_1_15_8 () Bool)
(declare-fun z_0_15_10 () Bool)
(declare-fun z_1_15_9 () Bool)
(declare-fun z_0_15_11 () Bool)
(declare-fun z_1_15_10 () Bool)
(declare-fun z_0_15_12 () Bool)
(declare-fun z_1_15_11 () Bool)
(declare-fun z_0_15_13 () Bool)
(declare-fun z_1_15_12 () Bool)
(declare-fun z_1_15_13 () Bool)
(declare-fun z_0_16_1 () Bool)
(declare-fun z_1_16_0 () Bool)
(declare-fun z_0_16_0 () Bool)
(declare-fun z_0_16_2 () Bool)
(declare-fun z_1_16_1 () Bool)
(declare-fun z_0_16_3 () Bool)
(declare-fun z_1_16_2 () Bool)
(declare-fun z_0_16_4 () Bool)
(declare-fun z_1_16_3 () Bool)
(declare-fun z_0_16_5 () Bool)
(declare-fun z_1_16_4 () Bool)
(declare-fun z_0_16_6 () Bool)
(declare-fun z_1_16_5 () Bool)
(declare-fun z_0_16_7 () Bool)
(declare-fun z_1_16_6 () Bool)
(declare-fun z_0_16_8 () Bool)
(declare-fun z_1_16_7 () Bool)
(declare-fun z_0_16_9 () Bool)
(declare-fun z_1_16_8 () Bool)
(declare-fun z_0_16_10 () Bool)
(declare-fun z_1_16_9 () Bool)
(declare-fun z_0_16_11 () Bool)
(declare-fun z_1_16_10 () Bool)
(declare-fun z_0_16_12 () Bool)
(declare-fun z_1_16_11 () Bool)
(declare-fun z_1_16_12 () Bool)
(declare-fun z_0_17_1 () Bool)
(declare-fun z_1_17_0 () Bool)
(declare-fun z_0_17_0 () Bool)
(declare-fun z_0_17_2 () Bool)
(declare-fun z_1_17_1 () Bool)
(declare-fun z_0_17_3 () Bool)
(declare-fun z_1_17_2 () Bool)
(declare-fun z_0_17_4 () Bool)
(declare-fun z_1_17_3 () Bool)
(declare-fun z_0_17_5 () Bool)
(declare-fun z_1_17_4 () Bool)
(declare-fun z_0_17_6 () Bool)
(declare-fun z_1_17_5 () Bool)
(declare-fun z_0_17_7 () Bool)
(declare-fun z_1_17_6 () Bool)
(declare-fun z_0_17_8 () Bool)
(declare-fun z_1_17_7 () Bool)
(declare-fun z_0_17_9 () Bool)
(declare-fun z_1_17_8 () Bool)
(declare-fun z_0_17_10 () Bool)
(declare-fun z_1_17_9 () Bool)
(declare-fun z_0_17_11 () Bool)
(declare-fun z_1_17_10 () Bool)
(declare-fun z_0_17_12 () Bool)
(declare-fun z_1_17_11 () Bool)
(declare-fun z_0_17_13 () Bool)
(declare-fun z_1_17_12 () Bool)
(declare-fun z_0_17_14 () Bool)
(declare-fun z_1_17_13 () Bool)
(declare-fun z_1_17_14 () Bool)
(declare-fun z_0_18_1 () Bool)
(declare-fun z_1_18_0 () Bool)
(declare-fun z_0_18_0 () Bool)
(declare-fun z_0_18_2 () Bool)
(declare-fun z_1_18_1 () Bool)
(declare-fun z_0_18_3 () Bool)
(declare-fun z_1_18_2 () Bool)
(declare-fun z_0_18_4 () Bool)
(declare-fun z_1_18_3 () Bool)
(declare-fun z_0_18_5 () Bool)
(declare-fun z_1_18_4 () Bool)
(declare-fun z_0_18_6 () Bool)
(declare-fun z_1_18_5 () Bool)
(declare-fun z_0_18_7 () Bool)
(declare-fun z_1_18_6 () Bool)
(declare-fun z_0_18_8 () Bool)
(declare-fun z_1_18_7 () Bool)
(declare-fun z_0_18_9 () Bool)
(declare-fun z_1_18_8 () Bool)
(declare-fun z_0_18_10 () Bool)
(declare-fun z_1_18_9 () Bool)
(declare-fun z_0_18_11 () Bool)
(declare-fun z_1_18_10 () Bool)
(declare-fun z_1_18_11 () Bool)
(declare-fun z_0_19_1 () Bool)
(declare-fun z_1_19_0 () Bool)
(declare-fun z_0_19_0 () Bool)
(declare-fun z_0_19_2 () Bool)
(declare-fun z_1_19_1 () Bool)
(declare-fun z_0_19_3 () Bool)
(declare-fun z_1_19_2 () Bool)
(declare-fun z_0_19_4 () Bool)
(declare-fun z_1_19_3 () Bool)
(declare-fun z_0_19_5 () Bool)
(declare-fun z_1_19_4 () Bool)
(declare-fun z_0_19_6 () Bool)
(declare-fun z_1_19_5 () Bool)
(declare-fun z_0_19_7 () Bool)
(declare-fun z_1_19_6 () Bool)
(declare-fun z_0_19_8 () Bool)
(declare-fun z_1_19_7 () Bool)
(declare-fun z_0_19_9 () Bool)
(declare-fun z_1_19_8 () Bool)
(declare-fun z_0_19_10 () Bool)
(declare-fun z_1_19_9 () Bool)
(declare-fun z_0_19_11 () Bool)
(declare-fun z_1_19_10 () Bool)
(declare-fun z_0_19_12 () Bool)
(declare-fun z_1_19_11 () Bool)
(declare-fun z_0_19_13 () Bool)
(declare-fun z_1_19_12 () Bool)
(declare-fun z_0_19_14 () Bool)
(declare-fun z_1_19_13 () Bool)
(declare-fun z_1_19_14 () Bool)
(assert
 (= z_0_0_0 (and z_1_0_0)))
(assert
 (= z_0_1_0 (and z_1_1_0)))
(assert
 (= z_0_2_0 (and z_1_2_0)))
(assert
 (= z_0_3_0 (and z_1_3_0)))
(assert
 (= z_0_4_0 (and z_1_4_0)))
(assert
 (= z_0_5_0 (and z_1_5_0)))
(assert
 (= z_0_6_0 (and z_1_6_0)))
(assert
 (= z_0_7_0 (and z_1_7_0)))
(assert
 (= z_0_8_0 (and z_1_8_0)))
(assert
 (= z_0_9_0 (and z_1_9_0)))
(assert
 (= z_0_10_0 (and z_1_10_0 z_0_10_1)))
(assert
 (= z_0_10_1 (and z_1_10_1 z_0_10_2)))
(assert
 (= z_0_10_2 (and z_1_10_2 z_0_10_3)))
(assert
 (= z_0_10_3 (and z_1_10_3 z_0_10_4)))
(assert
 (= z_0_10_4 (and z_1_10_4 z_0_10_5)))
(assert
 (= z_0_10_5 (and z_1_10_5 z_0_10_6)))
(assert
 (= z_0_10_6 (and z_1_10_6 z_0_10_7)))
(assert
 (= z_0_10_7 (and z_1_10_7 z_0_10_8)))
(assert
 (= z_0_10_8 (and z_1_10_8 z_0_10_9)))
(assert
 (= z_0_10_9 (and z_1_10_9 z_0_10_10)))
(assert
 (= z_0_10_10 (and z_1_10_10 z_0_10_11)))
(assert
 (let (($x119 (and z_1_10_5 z_1_10_6 z_1_10_7 z_1_10_8 z_1_10_9 z_1_10_10 z_1_10_11)))
 (= z_0_10_11 $x119)))
(assert
 (= z_0_11_0 (and z_1_11_0 z_0_11_1)))
(assert
 (= z_0_11_1 (and z_1_11_1 z_0_11_2)))
(assert
 (= z_0_11_2 (and z_1_11_2 z_0_11_3)))
(assert
 (= z_0_11_3 (and z_1_11_3 z_0_11_4)))
(assert
 (= z_0_11_4 (and z_1_11_4 z_0_11_5)))
(assert
 (= z_0_11_5 (and z_1_11_5 z_0_11_6)))
(assert
 (= z_0_11_6 (and z_1_11_6 z_0_11_7)))
(assert
 (= z_0_11_7 (and z_1_11_7 z_0_11_8)))
(assert
 (= z_0_11_8 (and z_1_11_8 z_0_11_9)))
(assert
 (= z_0_11_9 (and z_1_11_9 z_0_11_10)))
(assert
 (= z_0_11_10 (and z_1_11_10 z_0_11_11)))
(assert
 (= z_0_11_11 (and z_1_11_6 z_1_11_7 z_1_11_8 z_1_11_9 z_1_11_10 z_1_11_11)))
(assert
 (= z_0_12_0 (and z_1_12_0 z_0_12_1)))
(assert
 (= z_0_12_1 (and z_1_12_1 z_0_12_2)))
(assert
 (= z_0_12_2 (and z_1_12_2 z_0_12_3)))
(assert
 (= z_0_12_3 (and z_1_12_3 z_0_12_4)))
(assert
 (= z_0_12_4 (and z_1_12_4 z_0_12_5)))
(assert
 (= z_0_12_5 (and z_1_12_5 z_0_12_6)))
(assert
 (= z_0_12_6 (and z_1_12_6 z_0_12_7)))
(assert
 (= z_0_12_7 (and z_1_12_7 z_0_12_8)))
(assert
 (= z_0_12_8 (and z_1_12_8 z_0_12_9)))
(assert
 (= z_0_12_9 (and z_1_12_9 z_0_12_10)))
(assert
 (= z_0_12_10 (and z_1_12_10 z_0_12_11)))
(assert
 (let (($x215 (and z_1_12_4 z_1_12_5 z_1_12_6 z_1_12_7 z_1_12_8 z_1_12_9 z_1_12_10 z_1_12_11)))
 (= z_0_12_11 $x215)))
(assert
 (= z_0_13_0 (and z_1_13_0 z_0_13_1)))
(assert
 (= z_0_13_1 (and z_1_13_1 z_0_13_2)))
(assert
 (= z_0_13_2 (and z_1_13_2 z_0_13_3)))
(assert
 (= z_0_13_3 (and z_1_13_3 z_0_13_4)))
(assert
 (= z_0_13_4 (and z_1_13_4 z_0_13_5)))
(assert
 (= z_0_13_5 (and z_1_13_5 z_0_13_6)))
(assert
 (= z_0_13_6 (and z_1_13_6 z_0_13_7)))
(assert
 (= z_0_13_7 (and z_1_13_7 z_0_13_8)))
(assert
 (= z_0_13_8 (and z_1_13_8 z_0_13_9)))
(assert
 (= z_0_13_9 (and z_1_13_9 z_0_13_10)))
(assert
 (= z_0_13_10 (and z_1_13_10 z_0_13_11)))
(assert
 (= z_0_13_11 (and z_1_13_11 z_0_13_12)))
(assert
 (let (($x267 (and z_1_13_5 z_1_13_6 z_1_13_7 z_1_13_8 z_1_13_9 z_1_13_10 z_1_13_11 z_1_13_12)))
 (= z_0_13_12 $x267)))
(assert
 (= z_0_14_0 (and z_1_14_0 z_0_14_1)))
(assert
 (= z_0_14_1 (and z_1_14_1 z_0_14_2)))
(assert
 (= z_0_14_2 (and z_1_14_2 z_0_14_3)))
(assert
 (= z_0_14_3 (and z_1_14_3 z_0_14_4)))
(assert
 (= z_0_14_4 (and z_1_14_4 z_0_14_5)))
(assert
 (= z_0_14_5 (and z_1_14_5 z_0_14_6)))
(assert
 (= z_0_14_6 (and z_1_14_6 z_0_14_7)))
(assert
 (= z_0_14_7 (and z_1_14_7 z_0_14_8)))
(assert
 (= z_0_14_8 (and z_1_14_8 z_0_14_9)))
(assert
 (= z_0_14_9 (and z_1_14_9 z_0_14_10)))
(assert
 (= z_0_14_10 (and z_1_14_10 z_0_14_11)))
(assert
 (= z_0_14_11 (and z_1_14_11 z_0_14_12)))
(assert
 (= z_0_14_12 (and z_1_14_12 z_0_14_13)))
(assert
 (let (($x323 (and z_1_14_6 z_1_14_7 z_1_14_8 z_1_14_9 z_1_14_10 z_1_14_11 z_1_14_12 z_1_14_13)))
 (= z_0_14_13 $x323)))
(assert
 (= z_0_15_0 (and z_1_15_0 z_0_15_1)))
(assert
 (= z_0_15_1 (and z_1_15_1 z_0_15_2)))
(assert
 (= z_0_15_2 (and z_1_15_2 z_0_15_3)))
(assert
 (= z_0_15_3 (and z_1_15_3 z_0_15_4)))
(assert
 (= z_0_15_4 (and z_1_15_4 z_0_15_5)))
(assert
 (= z_0_15_5 (and z_1_15_5 z_0_15_6)))
(assert
 (= z_0_15_6 (and z_1_15_6 z_0_15_7)))
(assert
 (= z_0_15_7 (and z_1_15_7 z_0_15_8)))
(assert
 (= z_0_15_8 (and z_1_15_8 z_0_15_9)))
(assert
 (= z_0_15_9 (and z_1_15_9 z_0_15_10)))
(assert
 (= z_0_15_10 (and z_1_15_10 z_0_15_11)))
(assert
 (= z_0_15_11 (and z_1_15_11 z_0_15_12)))
(assert
 (= z_0_15_12 (and z_1_15_12 z_0_15_13)))
(assert
 (let (($x379 (and z_1_15_6 z_1_15_7 z_1_15_8 z_1_15_9 z_1_15_10 z_1_15_11 z_1_15_12 z_1_15_13)))
 (= z_0_15_13 $x379)))
(assert
 (= z_0_16_0 (and z_1_16_0 z_0_16_1)))
(assert
 (= z_0_16_1 (and z_1_16_1 z_0_16_2)))
(assert
 (= z_0_16_2 (and z_1_16_2 z_0_16_3)))
(assert
 (= z_0_16_3 (and z_1_16_3 z_0_16_4)))
(assert
 (= z_0_16_4 (and z_1_16_4 z_0_16_5)))
(assert
 (= z_0_16_5 (and z_1_16_5 z_0_16_6)))
(assert
 (= z_0_16_6 (and z_1_16_6 z_0_16_7)))
(assert
 (= z_0_16_7 (and z_1_16_7 z_0_16_8)))
(assert
 (= z_0_16_8 (and z_1_16_8 z_0_16_9)))
(assert
 (= z_0_16_9 (and z_1_16_9 z_0_16_10)))
(assert
 (= z_0_16_10 (and z_1_16_10 z_0_16_11)))
(assert
 (= z_0_16_11 (and z_1_16_11 z_0_16_12)))
(assert
 (let (($x431 (and z_1_16_7 z_1_16_8 z_1_16_9 z_1_16_10 z_1_16_11 z_1_16_12)))
 (= z_0_16_12 $x431)))
(assert
 (= z_0_17_0 (and z_1_17_0 z_0_17_1)))
(assert
 (= z_0_17_1 (and z_1_17_1 z_0_17_2)))
(assert
 (= z_0_17_2 (and z_1_17_2 z_0_17_3)))
(assert
 (= z_0_17_3 (and z_1_17_3 z_0_17_4)))
(assert
 (= z_0_17_4 (and z_1_17_4 z_0_17_5)))
(assert
 (= z_0_17_5 (and z_1_17_5 z_0_17_6)))
(assert
 (= z_0_17_6 (and z_1_17_6 z_0_17_7)))
(assert
 (= z_0_17_7 (and z_1_17_7 z_0_17_8)))
(assert
 (= z_0_17_8 (and z_1_17_8 z_0_17_9)))
(assert
 (= z_0_17_9 (and z_1_17_9 z_0_17_10)))
(assert
 (= z_0_17_10 (and z_1_17_10 z_0_17_11)))
(assert
 (= z_0_17_11 (and z_1_17_11 z_0_17_12)))
(assert
 (= z_0_17_12 (and z_1_17_12 z_0_17_13)))
(assert
 (= z_0_17_13 (and z_1_17_13 z_0_17_14)))
(assert
 (let (($x491 (and z_1_17_7 z_1_17_8 z_1_17_9 z_1_17_10 z_1_17_11 z_1_17_12 z_1_17_13 z_1_17_14)))
 (= z_0_17_14 $x491)))
(assert
 (= z_0_18_0 (and z_1_18_0 z_0_18_1)))
(assert
 (= z_0_18_1 (and z_1_18_1 z_0_18_2)))
(assert
 (= z_0_18_2 (and z_1_18_2 z_0_18_3)))
(assert
 (= z_0_18_3 (and z_1_18_3 z_0_18_4)))
(assert
 (= z_0_18_4 (and z_1_18_4 z_0_18_5)))
(assert
 (= z_0_18_5 (and z_1_18_5 z_0_18_6)))
(assert
 (= z_0_18_6 (and z_1_18_6 z_0_18_7)))
(assert
 (= z_0_18_7 (and z_1_18_7 z_0_18_8)))
(assert
 (= z_0_18_8 (and z_1_18_8 z_0_18_9)))
(assert
 (= z_0_18_9 (and z_1_18_9 z_0_18_10)))
(assert
 (= z_0_18_10 (and z_1_18_10 z_0_18_11)))
(assert
 (= z_0_18_11 (and z_1_18_6 z_1_18_7 z_1_18_8 z_1_18_9 z_1_18_10 z_1_18_11)))
(assert
 (= z_0_19_0 (and z_1_19_0 z_0_19_1)))
(assert
 (= z_0_19_1 (and z_1_19_1 z_0_19_2)))
(assert
 (= z_0_19_2 (and z_1_19_2 z_0_19_3)))
(assert
 (= z_0_19_3 (and z_1_19_3 z_0_19_4)))
(assert
 (= z_0_19_4 (and z_1_19_4 z_0_19_5)))
(assert
 (= z_0_19_5 (and z_1_19_5 z_0_19_6)))
(assert
 (= z_0_19_6 (and z_1_19_6 z_0_19_7)))
(assert
 (= z_0_19_7 (and z_1_19_7 z_0_19_8)))
(assert
 (= z_0_19_8 (and z_1_19_8 z_0_19_9)))
(assert
 (= z_0_19_9 (and z_1_19_9 z_0_19_10)))
(assert
 (= z_0_19_10 (and z_1_19_10 z_0_19_11)))
(assert
 (= z_0_19_11 (and z_1_19_11 z_0_19_12)))
(assert
 (= z_0_19_12 (and z_1_19_12 z_0_19_13)))
(assert
 (= z_0_19_13 (and z_1_19_13 z_0_19_14)))
(assert
 (let (($x599 (and z_1_19_7 z_1_19_8 z_1_19_9 z_1_19_10 z_1_19_11 z_1_19_12 z_1_19_13 z_1_19_14)))
 (= z_0_19_14 $x599)))
(assert
 (= z_0_0_0 true))
(assert
 (= z_0_1_0 true))
(assert
 (= z_0_2_0 true))
(assert
 (= z_0_3_0 true))
(assert
 (= z_0_4_0 true))
(assert
 (= z_0_5_0 true))
(assert
 (= z_0_6_0 true))
(assert
 (= z_0_7_0 true))
(assert
 (= z_0_8_0 true))
(assert
 (= z_0_9_0 true))
(assert
 (= z_0_10_0 false))
(assert
 (= z_0_11_0 false))
(assert
 (= z_0_12_0 false))
(assert
 (= z_0_13_0 false))
(assert
 (= z_0_14_0 false))
(assert
 (= z_0_15_0 false))
(assert
 (= z_0_16_0 false))
(assert
 (= z_0_17_0 false))
(assert
 (= z_0_18_0 false))
(assert
 (= z_0_19_0 false))
(assert
 (let (($x631 (= z_1_0_0 z_1_1_0)))
 (and $x631)))
(assert
 (let (($x633 (= z_1_0_0 z_1_2_0)))
 (and $x633)))
(assert
 (let (($x635 (= z_1_0_0 z_1_3_0)))
 (and $x635)))
(assert
 (let (($x637 (= z_1_0_0 z_1_4_0)))
 (and $x637)))
(assert
 (let (($x639 (= z_1_0_0 z_1_5_0)))
 (and $x639)))
(assert
 (let (($x641 (= z_1_0_0 z_1_6_0)))
 (and $x641)))
(assert
 (let (($x643 (= z_1_0_0 z_1_7_0)))
 (and $x643)))
(assert
 (let (($x645 (= z_1_0_0 z_1_8_0)))
 (and $x645)))
(assert
 (let (($x647 (= z_1_0_0 z_1_9_0)))
 (and $x647)))
(assert
 (let (($x649 (= z_1_1_0 z_1_2_0)))
 (and $x649)))
(assert
 (let (($x651 (= z_1_1_0 z_1_3_0)))
 (and $x651)))
(assert
 (let (($x653 (= z_1_1_0 z_1_4_0)))
 (and $x653)))
(assert
 (let (($x655 (= z_1_1_0 z_1_5_0)))
 (and $x655)))
(assert
 (let (($x657 (= z_1_1_0 z_1_6_0)))
 (and $x657)))
(assert
 (let (($x659 (= z_1_1_0 z_1_7_0)))
 (and $x659)))
(assert
 (let (($x661 (= z_1_1_0 z_1_8_0)))
 (and $x661)))
(assert
 (let (($x663 (= z_1_1_0 z_1_9_0)))
 (and $x663)))
(assert
 (let (($x665 (= z_1_2_0 z_1_3_0)))
 (and $x665)))
(assert
 (let (($x667 (= z_1_2_0 z_1_4_0)))
 (and $x667)))
(assert
 (let (($x669 (= z_1_2_0 z_1_5_0)))
 (and $x669)))
(assert
 (let (($x671 (= z_1_2_0 z_1_6_0)))
 (and $x671)))
(assert
 (let (($x673 (= z_1_2_0 z_1_7_0)))
 (and $x673)))
(assert
 (let (($x675 (= z_1_2_0 z_1_8_0)))
 (and $x675)))
(assert
 (let (($x677 (= z_1_2_0 z_1_9_0)))
 (and $x677)))
(assert
 (let (($x679 (= z_1_3_0 z_1_4_0)))
 (and $x679)))
(assert
 (let (($x681 (= z_1_3_0 z_1_5_0)))
 (and $x681)))
(assert
 (let (($x683 (= z_1_3_0 z_1_6_0)))
 (and $x683)))
(assert
 (let (($x685 (= z_1_3_0 z_1_7_0)))
 (and $x685)))
(assert
 (let (($x687 (= z_1_3_0 z_1_8_0)))
 (and $x687)))
(assert
 (let (($x689 (= z_1_3_0 z_1_9_0)))
 (and $x689)))
(assert
 (let (($x691 (= z_1_4_0 z_1_5_0)))
 (and $x691)))
(assert
 (let (($x693 (= z_1_4_0 z_1_6_0)))
 (and $x693)))
(assert
 (let (($x695 (= z_1_4_0 z_1_7_0)))
 (and $x695)))
(assert
 (let (($x697 (= z_1_4_0 z_1_8_0)))
 (and $x697)))
(assert
 (let (($x699 (= z_1_4_0 z_1_9_0)))
 (and $x699)))
(assert
 (let (($x701 (= z_1_5_0 z_1_6_0)))
 (and $x701)))
(assert
 (let (($x703 (= z_1_5_0 z_1_7_0)))
 (and $x703)))
(assert
 (let (($x705 (= z_1_5_0 z_1_8_0)))
 (and $x705)))
(assert
 (let (($x707 (= z_1_5_0 z_1_9_0)))
 (and $x707)))
(assert
 (let (($x709 (= z_1_6_0 z_1_7_0)))
 (and $x709)))
(assert
 (let (($x711 (= z_1_6_0 z_1_8_0)))
 (and $x711)))
(assert
 (let (($x713 (= z_1_6_0 z_1_9_0)))
 (and $x713)))
(assert
 (let (($x715 (= z_1_7_0 z_1_8_0)))
 (and $x715)))
(assert
 (let (($x717 (= z_1_7_0 z_1_9_0)))
 (and $x717)))
(assert
 (let (($x719 (= z_1_8_0 z_1_9_0)))
 (and $x719)))
(assert
 (let (($x721 (= z_1_12_4 z_1_14_11)))
 (and $x721)))
(assert
 (let (($x723 (= z_1_12_5 z_1_14_12)))
 (and $x723)))
(assert
 (let (($x725 (= z_1_12_6 z_1_14_13)))
 (and $x725)))
(assert
 (let (($x727 (= z_1_12_7 z_1_14_6)))
 (and $x727)))
(assert
 (let (($x729 (= z_1_12_8 z_1_14_7)))
 (and $x729)))
(assert
 (let (($x731 (= z_1_12_9 z_1_14_8)))
 (and $x731)))
(assert
 (let (($x733 (= z_1_12_10 z_1_14_9)))
 (and $x733)))
(assert
 (let (($x735 (= z_1_12_11 z_1_14_10)))
 (and $x735)))
(assert
 (let (($x737 (= z_1_16_7 z_1_18_9)))
 (and $x737)))
(assert
 (let (($x739 (= z_1_16_8 z_1_18_10)))
 (and $x739)))
(assert
 (let (($x741 (= z_1_16_9 z_1_18_11)))
 (and $x741)))
(assert
 (let (($x743 (= z_1_16_10 z_1_18_6)))
 (and $x743)))
(assert
 (let (($x745 (= z_1_16_11 z_1_18_7)))
 (and $x745)))
(assert
 (let (($x747 (= z_1_16_12 z_1_18_8)))
 (and $x747)))
(check-sat)

